
******************************************************************************
This program contains Ipopt, a library for large-scale nonlinear optimization.
 Ipopt is released as open source code under the Eclipse Public License (EPL).
         For more information visit http://projects.coin-or.org/Ipopt
******************************************************************************

This is Ipopt version 3.12.6, running with linear solver ma57.

Number of nonzeros in equality constraint Jacobian...:    14998
Number of nonzeros in inequality constraint Jacobian.:        0
Number of nonzeros in Lagrangian Hessian.............:    39984

Reallocating memory for MA57: lfact (5380329)
Total number of variables............................:    10000
                     variables with only lower bounds:        0
                variables with lower and upper bounds:    10000
                     variables with only upper bounds:        0
Total number of equality constraints.................:     5000
Total number of inequality constraints...............:        0
        inequality constraints with only lower bounds:        0
   inequality constraints with lower and upper bounds:        0
        inequality constraints with only upper bounds:        0

iter    objective    inf_pr   inf_du lg(mu)  ||d||  lg(rg) alpha_du alpha_pr  ls
   0 -4.9221562e+07 3.00e+00 1.00e+02  -1.0 0.00e+00    -  0.00e+00 0.00e+00   0
   1 -1.2427720e+08 1.33e-15 7.34e+03  -1.0 7.34e-01   4.0 3.83e-01 1.00e+00f  1
   2 -1.2647055e+08 1.78e-15 1.29e+02  -1.0 3.87e-02   3.5 1.00e+00 1.00e+00f  1
   3 -1.3407674e+08 1.78e-15 1.45e+02  -1.0 1.30e-01   3.0 1.00e+00 1.00e+00f  1
   4 -1.7171438e+08 1.78e-15 2.20e+02  -1.0 5.93e-01   2.6 9.77e-01 1.00e+00f  1
   5 -1.9072268e+08 1.78e-15 2.52e+02  -1.0 2.56e-01   3.0 1.00e+00 1.00e+00f  1
   6 -2.9579603e+08 1.78e-15 4.16e+02  -1.0 1.26e+00   2.5 9.32e-01 1.00e+00f  1
   7 -3.5191755e+08 1.33e-15 4.88e+02  -1.0 5.56e-01   2.9 1.00e+00 1.00e+00f  1
   8 -3.5730832e+08 1.78e-15 4.95e+02  -1.0 3.00e+00   2.5 9.07e-01 1.94e-02f  1
   9 -3.7963729e+08 1.33e-15 5.23e+02  -1.0 7.62e-01   2.9 1.00e+00 2.78e-01f  1
iter    objective    inf_pr   inf_du lg(mu)  ||d||  lg(rg) alpha_du alpha_pr  ls
  10 -4.2332984e+08 1.78e-15 5.82e+02  -1.0 4.01e+00   2.4 8.25e-01 1.13e-01f  1
  11 -4.5314442e+08 1.78e-15 6.16e+02  -1.0 1.03e+00   2.8 1.00e+00 2.57e-01f  1
  12 -5.2773012e+08 1.78e-15 7.13e+02  -1.0 6.07e+00   2.4 6.49e-01 1.22e-01f  1
  13 -5.7282212e+08 1.78e-15 7.61e+02  -1.0 1.46e+00   2.8 1.00e+00 2.54e-01f  1
  14 -6.9896693e+08 1.78e-15 9.15e+02  -1.0 9.97e+00   2.3 4.93e-01 1.20e-01f  1
  15 -7.5913782e+08 1.78e-15 9.74e+02  -1.0 2.18e+00   2.7 1.00e+00 2.08e-01f  1
  16 -9.6840830e+08 4.49e-14 1.22e+03  -1.0 1.82e+01   2.3 3.54e-01 1.05e-01f  1
  17 -1.0560166e+09 3.64e-14 1.30e+03  -1.0 3.41e+00   2.7 1.00e+00 1.78e-01f  1
  18 -1.0947639e+09 3.64e-14 1.33e+03  -1.0 3.75e+01   2.2 2.31e-01 1.00e-02f  1
  19 -1.1031806e+09 3.60e-14 1.24e+03  -1.0 4.03e+00   2.6 1.00e+00 1.31e-02f  1
iter    objective    inf_pr   inf_du lg(mu)  ||d||  lg(rg) alpha_du alpha_pr  ls
  20 -1.2093394e+09 3.55e-14 1.24e+03  -1.0 4.97e+01   2.2 1.61e-01 1.74e-02f  1
  21 -1.2513095e+09 3.33e-14 1.17e+03  -1.0 4.36e+00   2.6 1.00e+00 5.12e-02f  1
  22 -1.3810276e+09 3.20e-14 1.19e+03  -1.0 8.46e+01   2.1 9.15e-02 1.23e-02f  1
  23 -1.4389651e+09 3.11e-14 1.12e+03  -1.0 4.81e+00   2.5 1.00e+00 5.64e-02f  1
  24 -1.5374011e+09 3.06e-14 1.18e+03  -1.0 3.08e+02   2.1 1.97e-02 4.13e-03f  1
  25 -1.5653301e+09 3.02e-14 3.94e+03  -1.0 5.52e+00   2.5 1.00e+00 2.20e-02f  1
  26 -1.6917446e+09 2.00e-14 2.70e+03  -1.0 1.49e+00   2.9 9.50e-01 3.40e-01f  1
  27 -1.8049448e+09 1.87e-14 3.68e+03  -1.0 6.42e+00   2.4 4.34e-01 7.19e-02f  1
  28 -1.8758633e+09 1.60e-14 3.15e+03  -1.0 1.74e+00   2.9 3.86e-01 1.52e-01f  1
  29 -1.9788330e+09 1.51e-14 3.07e+03  -1.0 7.88e+00   2.4 8.24e-02 5.17e-02f  1
iter    objective    inf_pr   inf_du lg(mu)  ||d||  lg(rg) alpha_du alpha_pr  ls
  30 -2.0055389e+09 1.42e-14 3.05e+03  -1.0 2.03e+00   2.8 3.41e-01 4.77e-02f  1
  31 -2.0968632e+09 1.42e-14 2.94e+03  -1.0 9.76e+00   2.3 3.61e-02 3.69e-02f  1
  32 -2.1151855e+09 1.33e-14 3.06e+03  -1.0 2.34e+00   2.8 2.48e-01 2.77e-02f  1
  33 -2.1906980e+09 1.29e-14 3.09e+03  -1.0 1.22e+01   2.3 5.21e-02 2.42e-02f  1
  34 -2.2140342e+09 1.29e-14 3.50e+03  -1.0 2.65e+00   2.7 2.86e-01 3.01e-02f  1
  35 -2.2985675e+09 1.20e-14 3.57e+03  -1.0 1.60e+01   2.2 4.42e-02 2.09e-02f  1
  36 -2.3234235e+09 1.11e-14 3.85e+03  -1.0 3.06e+00   2.7 1.99e-01 2.69e-02f  1
  37 -2.4055308e+09 1.15e-14 3.77e+03  -1.0 2.23e+01   2.2 1.28e-02 1.51e-02f  1
  38 -2.4301518e+09 1.15e-14 3.95e+03  -1.0 3.57e+00   2.6 1.72e-01 2.23e-02f  1
  39 -2.5133476e+09 1.15e-14 3.98e+03  -1.0 3.35e+01   2.1 1.94e-02 1.09e-02f  1
iter    objective    inf_pr   inf_du lg(mu)  ||d||  lg(rg) alpha_du alpha_pr  ls
  40 -2.5226054e+09 1.07e-14 4.23e+03  -1.0 4.13e+00   2.6 1.83e-01 7.09e-03f  1
  41 -2.6103600e+09 1.11e-14 4.20e+03  -1.0 5.96e+01   2.1 8.05e-03 7.53e-03f  1
  42 -2.6262384e+09 1.11e-14 4.28e+03  -1.0 4.78e+00   2.5 9.92e-02 1.03e-02f  1
  43 -2.6801276e+09 1.07e-14 4.30e+03  -1.0 2.02e+02   2.0 4.71e-03 2.30e-03f  1
  44 -2.6880245e+09 1.02e-14 4.35e+03  -1.0 5.62e+00   2.4 8.26e-02 4.41e-03f  1
  45 -2.7219811e+09 1.02e-14 4.12e+03  -1.0 1.57e+00   2.9 3.80e-01 6.32e-02f  1
  46 -2.7879810e+09 9.33e-15 3.98e+03  -1.0 6.59e+00   2.4 2.39e-02 3.26e-02f  1
  47 -2.8035539e+09 9.77e-15 3.77e+03  -1.0 1.80e+00   2.8 3.05e-01 2.59e-02f  1
  48 -2.8717287e+09 8.88e-15 3.67e+03  -1.0 7.95e+00   2.3 4.18e-02 2.85e-02f  1
  49 -2.8921999e+09 8.88e-15 3.45e+03  -1.0 2.04e+00   2.8 2.26e-01 3.02e-02f  1
iter    objective    inf_pr   inf_du lg(mu)  ||d||  lg(rg) alpha_du alpha_pr  ls
  50 -2.9675817e+09 9.33e-15 3.37e+03  -1.0 9.83e+00   2.3 4.78e-02 2.65e-02f  1
  51 -2.9815033e+09 9.33e-15 3.18e+03  -1.0 2.33e+00   2.7 2.60e-01 1.82e-02f  1
  52 -3.0554011e+09 8.88e-15 3.11e+03  -1.0 1.22e+01   2.2 2.72e-02 2.18e-02f  1
  53 -3.0764440e+09 7.99e-15 2.97e+03  -1.0 2.67e+00   2.7 2.47e-01 2.45e-02f  1
  54 -3.1490880e+09 8.44e-15 2.89e+03  -1.0 1.62e+01   2.2 7.12e-03 1.79e-02f  1
  55 -3.1593491e+09 7.99e-15 2.88e+03  -1.0 3.08e+00   2.6 1.05e-01 1.07e-02f  1
  56 -3.2136898e+09 8.44e-15 2.87e+03  -1.0 2.23e+01   2.1 1.60e-02 1.07e-02f  1
  57 -3.2256921e+09 7.11e-15 2.89e+03  -1.0 3.56e+00   2.6 1.28e-01 1.12e-02f  1
  58 -3.2844690e+09 7.55e-15 2.90e+03  -1.0 3.43e+01   2.1 1.73e-02 8.92e-03f  1
  59 -3.2998789e+09 8.44e-15 2.89e+03  -1.0 4.11e+00   2.5 6.49e-02 1.27e-02f  1
iter    objective    inf_pr   inf_du lg(mu)  ||d||  lg(rg) alpha_du alpha_pr  ls
  60 -3.3427374e+09 8.44e-15 2.92e+03  -1.0 6.18e+01   2.0 1.29e-02 4.72e-03f  1
  61 -3.3603509e+09 7.99e-15 2.97e+03  -1.0 4.80e+00   2.5 1.81e-01 1.29e-02f  1
  62 -3.4139356e+09 8.44e-15 2.95e+03  -1.0 1.81e+02   2.0 2.88e-03 3.74e-03f  1
  63 -3.4187564e+09 7.99e-15 2.99e+03  -1.0 5.57e+00   2.4 1.06e-01 3.12e-03f  1
  64 -3.4520652e+09 7.99e-15 2.77e+03  -1.0 1.57e+00   2.8 2.78e-01 6.95e-02f  1
  65 -3.5052221e+09 7.55e-15 2.72e+03  -1.0 6.55e+00   2.4 5.04e-02 3.08e-02f  1
  66 -3.5146336e+09 6.66e-15 2.88e+03  -1.0 1.79e+00   2.8 1.98e-01 1.79e-02f  1
  67 -3.5815310e+09 7.55e-15 2.84e+03  -1.0 7.91e+00   2.3 6.96e-02 3.33e-02f  1
  68 -3.5954843e+09 7.11e-15 2.98e+03  -1.0 2.04e+00   2.7 2.98e-01 2.36e-02f  1
  69 -3.6609229e+09 6.22e-15 2.94e+03  -1.0 9.82e+00   2.3 5.70e-02 2.77e-02f  1
iter    objective    inf_pr   inf_du lg(mu)  ||d||  lg(rg) alpha_du alpha_pr  ls
  70 -3.6807454e+09 6.22e-15 2.96e+03  -1.0 2.33e+00   2.7 3.26e-01 2.99e-02f  1
  71 -3.7529724e+09 6.22e-15 2.89e+03  -1.0 1.22e+01   2.2 3.85e-02 2.59e-02f  1
  72 -3.7723173e+09 5.77e-15 2.82e+03  -1.0 2.67e+00   2.6 1.76e-01 2.59e-02f  1
  73 -3.8275375e+09 5.77e-15 2.78e+03  -1.0 1.58e+01   2.2 2.54e-02 1.63e-02f  1
  74 -3.8473494e+09 6.22e-15 2.66e+03  -1.0 3.06e+00   2.6 1.62e-01 2.34e-02f  1
  75 -3.9035544e+09 6.22e-15 2.63e+03  -1.0 2.11e+01   2.1 1.97e-02 1.35e-02f  1
  76 -3.9209592e+09 5.33e-15 2.42e+03  -1.0 3.49e+00   2.5 2.33e-01 1.82e-02f  1
  77 -3.9895320e+09 5.77e-15 2.38e+03  -1.0 3.22e+01   2.1 8.75e-03 1.31e-02f  1
  78 -4.0100145e+09 5.33e-15 2.26e+03  -1.0 4.13e+00   2.5 9.69e-02 1.88e-02f  1
  79 -4.0477560e+09 5.33e-15 2.27e+03  -1.0 5.33e+01   2.0 1.22e-02 5.17e-03f  1
iter    objective    inf_pr   inf_du lg(mu)  ||d||  lg(rg) alpha_du alpha_pr  ls
  80 -4.0643233e+09 5.33e-15 2.20e+03  -1.0 4.76e+00   2.4 6.23e-02 1.32e-02f  1
  81 -4.1009030e+09 4.88e-15 2.20e+03  -1.0 1.08e+02   2.0 4.23e-03 3.17e-03f  1
  82 -4.1174794e+09 4.44e-15 2.15e+03  -1.0 5.36e+00   2.4 6.16e-02 1.14e-02f  1
  83 -4.1334079e+09 4.88e-15 3.01e+03  -1.0 1.53e+00   2.8 4.90e-01 3.46e-02f  1
  84 -4.1954062e+09 4.44e-15 2.93e+03  -1.0 6.21e+00   2.3 4.79e-02 3.80e-02f  1
  85 -4.2096131e+09 4.44e-15 3.29e+03  -1.0 1.72e+00   2.8 2.21e-01 2.80e-02f  1
  86 -4.2629011e+09 4.44e-15 3.24e+03  -1.0 7.57e+00   2.3 4.46e-02 2.81e-02f  1
  87 -4.2827536e+09 4.00e-15 3.81e+03  -1.0 1.97e+00   2.7 4.13e-01 3.51e-02f  1
  88 -4.3452800e+09 4.00e-15 3.75e+03  -1.0 9.06e+00   2.2 5.03e-02 2.82e-02f  1
  89 -4.3669234e+09 4.44e-15 3.77e+03  -1.0 2.23e+00   2.7 1.87e-01 3.39e-02f  1
iter    objective    inf_pr   inf_du lg(mu)  ||d||  lg(rg) alpha_du alpha_pr  ls
  90 -4.4279345e+09 4.00e-15 3.72e+03  -1.0 1.15e+01   2.2 3.58e-02 2.26e-02f  1
  91 -4.4431348e+09 4.44e-15 3.80e+03  -1.0 2.59e+00   2.6 2.55e-01 2.08e-02f  1
  92 -4.5122000e+09 4.00e-15 3.75e+03  -1.0 1.46e+01   2.1 3.38e-02 2.08e-02f  1
  93 -4.5275143e+09 4.00e-15 3.71e+03  -1.0 2.95e+00   2.6 9.55e-02 1.81e-02f  1
  94 -4.5831524e+09 4.44e-15 3.66e+03  -1.0 1.98e+01   2.1 1.27e-02 1.32e-02f  1
  95 -4.5950454e+09 4.44e-15 3.62e+03  -1.0 3.39e+00   2.5 4.45e-02 1.22e-02f  1
  96 -4.6359242e+09 4.88e-15 3.60e+03  -1.0 2.97e+01   2.0 8.68e-03 7.40e-03f  1
  97 -4.6478851e+09 4.44e-15 3.58e+03  -1.0 3.98e+00   2.4 8.80e-02 1.06e-02f  1
  98 -4.6888843e+09 4.88e-15 3.57e+03  -1.0 5.23e+01   2.0 7.16e-03 5.41e-03f  1
  99 -4.7025472e+09 4.44e-15 3.53e+03  -1.0 4.63e+00   2.4 5.31e-02 1.06e-02f  1
iter    objective    inf_pr   inf_du lg(mu)  ||d||  lg(rg) alpha_du alpha_pr  ls
 100 -4.7335700e+09 4.44e-15 3.50e+03  -1.0 1.61e+02   1.9 1.13e-03 2.51e-03f  1
 101 -4.7377542e+09 4.44e-15 3.50e+03  -1.0 5.56e+00   2.3 1.38e-01 2.83e-03f  1
 102 -4.7583600e+09 4.44e-15 3.13e+03  -1.0 1.55e+00   2.8 5.72e-01 4.47e-02f  1
 103 -4.8234682e+09 4.00e-15 3.01e+03  -1.0 6.37e+00   2.3 6.15e-02 4.06e-02f  1
 104 -4.8412159e+09 4.44e-15 2.79e+03  -1.0 1.75e+00   2.7 3.17e-01 3.54e-02f  1
 105 -4.8954145e+09 4.44e-15 2.74e+03  -1.0 7.55e+00   2.2 7.40e-02 2.99e-02f  1
 106 -4.9168100e+09 4.00e-15 2.65e+03  -1.0 1.97e+00   2.7 3.63e-01 3.93e-02f  1
 107 -4.9830144e+09 4.00e-15 2.58e+03  -1.0 9.20e+00   2.2 4.91e-02 3.25e-02f  1
 108 -4.9985333e+09 4.00e-15 2.54e+03  -1.0 2.24e+00   2.6 4.40e-01 2.58e-02f  1
 109 -5.0654756e+09 4.44e-15 2.45e+03  -1.0 1.19e+01   2.1 1.37e-02 2.83e-02f  1
iter    objective    inf_pr   inf_du lg(mu)  ||d||  lg(rg) alpha_du alpha_pr  ls
 110 -5.0767152e+09 3.77e-15 2.62e+03  -1.0 2.61e+00   2.6 2.21e-01 1.68e-02f  1
 111 -5.1286375e+09 4.00e-15 2.58e+03  -1.0 1.30e+01   2.1 2.30e-02 1.84e-02f  1
 112 -5.1386402e+09 4.00e-15 2.71e+03  -1.0 2.81e+00   2.5 1.63e-01 1.33e-02f  1
 113 -5.2215363e+09 4.44e-15 2.60e+03  -1.0 1.65e+01   2.0 1.12e-02 2.41e-02f  1
 114 -5.2286308e+09 4.00e-15 2.77e+03  -1.0 3.33e+00   2.5 1.87e-01 8.24e-03f  1
 115 -5.2900152e+09 4.00e-15 2.71e+03  -1.0 2.31e+01   2.0 1.02e-02 1.41e-02f  1
 116 -5.2986371e+09 4.00e-15 2.77e+03  -1.0 3.82e+00   2.4 1.35e-01 8.90e-03f  1
 117 -5.3622114e+09 3.55e-15 2.72e+03  -1.0 4.67e+01   1.9 6.35e-03 1.10e-02f  1
 118 -5.3721484e+09 4.00e-15 2.72e+03  -1.0 4.38e+00   2.4 1.21e-01 9.06e-03f  1
 119 -5.4399286e+09 4.00e-15 2.68e+03  -1.0 2.22e+02   1.9 3.75e-03 7.24e-03f  1
iter    objective    inf_pr   inf_du lg(mu)  ||d||  lg(rg) alpha_du alpha_pr  ls
 120 -5.4521325e+09 4.00e-15 2.86e+03  -1.0 5.34e+00   2.3 2.26e-01 9.73e-03f  1
 121 -5.4818714e+09 4.00e-15 2.72e+03  -1.0 1.54e+00   2.7 3.01e-01 7.55e-02f  1
 122 -5.5247417e+09 4.44e-15 2.75e+03  -1.0 6.58e+00   2.3 1.09e-01 3.14e-02f  1
 123 -5.5461138e+09 3.55e-15 2.90e+03  -1.0 1.75e+00   2.7 4.07e-01 5.01e-02f  1
 124 -5.6042803e+09 3.77e-15 2.81e+03  -1.0 8.26e+00   2.2 8.21e-02 3.80e-02f  1
 125 -5.6289021e+09 3.77e-15 2.66e+03  -1.0 2.06e+00   2.6 5.21e-02 5.29e-02f  1
 126 -5.6435795e+09 4.11e-15 2.67e+03  -1.0 9.81e+00   2.2 3.42e-02 8.21e-03f  1
 127 -5.6608978e+09 4.11e-15 2.66e+03  -1.0 2.27e+00   2.6 1.58e-01 3.35e-02f  1
 128 -5.7028567e+09 4.22e-15 2.64e+03  -1.0 1.27e+01   2.1 3.87e-02 2.02e-02f  1
 129 -5.7143731e+09 4.44e-15 2.74e+03  -1.0 2.66e+00   2.5 1.72e-01 2.02e-02f  1
iter    objective    inf_pr   inf_du lg(mu)  ||d||  lg(rg) alpha_du alpha_pr  ls
 130 -5.7555825e+09 4.27e-15 2.74e+03  -1.0 1.74e+01   2.1 4.31e-02 1.67e-02f  1
 131 -5.7731679e+09 4.22e-15 2.81e+03  -1.0 3.12e+00   2.5 2.24e-01 2.79e-02f  1
 132 -5.8117717e+09 4.22e-15 2.81e+03  -1.0 2.41e+01   2.0 3.15e-02 1.30e-02f  1
 133 -5.8318135e+09 4.22e-15 2.80e+03  -1.0 3.61e+00   2.4 1.50e-01 2.88e-02f  1
 134 -5.8743735e+09 4.33e-15 2.78e+03  -1.0 3.52e+01   2.0 2.10e-02 1.13e-02f  1
 135 -5.8842306e+09 4.11e-15 2.81e+03  -1.0 4.16e+00   2.4 1.58e-01 1.27e-02f  1
 136 -5.9192067e+09 4.22e-15 2.79e+03  -1.0 6.50e+01   1.9 6.86e-03 6.87e-03f  1
 137 -5.9298052e+09 4.22e-15 2.82e+03  -1.0 4.87e+00   2.3 1.78e-01 1.21e-02f  1
 138 -5.9490767e+09 4.44e-15 2.81e+03  -1.0 2.54e+02   1.9 1.92e-03 2.43e-03f  1
 139 -5.9524618e+09 4.11e-15 2.95e+03  -1.0 5.65e+00   2.3 1.84e-01 3.48e-03f  1
iter    objective    inf_pr   inf_du lg(mu)  ||d||  lg(rg) alpha_du alpha_pr  ls
 140 -5.9760330e+09 4.33e-15 2.76e+03  -1.0 1.57e+00   2.7 1.45e-01 7.56e-02f  1
 141 -6.0052808e+09 4.66e-15 2.71e+03  -1.0 6.44e+00   2.2 5.84e-02 2.78e-02f  1
 142 -6.0288144e+09 4.22e-15 2.64e+03  -1.0 1.74e+00   2.7 3.42e-01 6.92e-02f  1
 143 -6.0647611e+09 3.94e-15 2.58e+03  -1.0 8.09e+00   2.2 5.76e-02 3.10e-02f  1
 144 -6.0827539e+09 4.22e-15 2.81e+03  -1.0 2.05e+00   2.6 3.65e-01 4.97e-02f  1
 145 -6.1242281e+09 3.83e-15 2.79e+03  -1.0 9.93e+00   2.1 5.69e-02 3.23e-02f  1
 146 -6.1395928e+09 4.05e-15 2.99e+03  -1.0 2.34e+00   2.5 2.22e-01 3.96e-02f  1
 147 -6.1730363e+09 3.77e-15 3.05e+03  -1.0 1.21e+01   2.1 7.67e-02 2.30e-02f  1
 148 -6.1910451e+09 3.77e-15 3.34e+03  -1.0 2.60e+00   2.5 3.60e-01 4.28e-02f  1
 149 -6.2480155e+09 3.72e-15 3.24e+03  -1.0 1.63e+01   2.0 4.86e-02 3.45e-02f  1
iter    objective    inf_pr   inf_du lg(mu)  ||d||  lg(rg) alpha_du alpha_pr  ls
 150 -6.2587531e+09 3.55e-15 3.29e+03  -1.0 3.01e+00   2.4 2.72e-01 2.35e-02f  1
 151 -6.2872723e+09 3.77e-15 3.25e+03  -1.0 1.91e+01   2.0 4.33e-02 1.54e-02f  1
 152 -6.2984211e+09 3.55e-15 3.18e+03  -1.0 3.14e+00   2.4 6.91e-02 2.28e-02f  1
 153 -6.3394064e+09 3.55e-15 3.12e+03  -1.0 1.82e+01   1.9 1.93e-02 1.87e-02f  1
 154 -6.3497750e+09 3.89e-15 3.06e+03  -1.0 3.67e+00   2.3 4.08e-02 1.91e-02f  1
 155 -6.3787543e+09 4.00e-15 3.02e+03  -1.0 2.52e+01   1.9 1.17e-02 1.09e-02f  1
 156 -6.3874454e+09 3.55e-15 2.98e+03  -1.0 4.33e+00   2.3 1.06e-01 1.45e-02f  1
 157 -6.4148601e+09 4.27e-15 2.95e+03  -1.0 3.80e+01   1.8 1.18e-02 8.31e-03f  1
 158 -6.4208787e+09 4.55e-15 2.92e+03  -1.0 4.93e+00   2.2 5.34e-02 9.20e-03f  1
 159 -6.4513212e+09 4.88e-15 2.90e+03  -1.0 6.90e+01   1.8 6.49e-03 6.79e-03f  1
iter    objective    inf_pr   inf_du lg(mu)  ||d||  lg(rg) alpha_du alpha_pr  ls
 160 -6.4588020e+09 4.66e-15 2.87e+03  -1.0 5.62e+00   2.2 2.26e-02 1.02e-02f  1
 161 -6.4770346e+09 4.22e-15 2.87e+03  -1.0 2.51e+02   1.7 6.24e-03 2.40e-03f  1
 162 -6.4823120e+09 4.33e-15 2.85e+03  -1.0 6.47e+00   2.1 3.15e-02 6.42e-03f  1
 163 -6.4911824e+09 4.44e-15 2.73e+03  -1.0 1.82e+00   2.6 1.77e-01 3.31e-02f  1
 164 -6.5150442e+09 4.22e-15 2.65e+03  -1.0 7.85e+00   2.1 3.82e-02 2.63e-02f  1
 165 -6.5210183e+09 4.44e-15 2.60e+03  -1.0 2.08e+00   2.5 1.63e-01 2.10e-02f  1
 166 -6.5459420e+09 4.27e-15 2.54e+03  -1.0 8.82e+00   2.0 3.14e-02 2.43e-02f  1

Number of Iterations....: 166

                                   (scaled)                 (unscaled)
Objective...............:  -1.2468460870407917e+07   -6.5459419569641562e+09
Dual infeasibility......:   2.5366104421176315e+03    1.3317204821117565e+06
Constraint violation....:   4.2743586448068527e-15    4.2743586448068527e-15
Complementarity.........:   2.8442404536974266e+01    1.4932262381911489e+04
Overall NLP error.......:   5.8868784814900619e+02    1.3317204821117565e+06


Number of objective function evaluations             = 167
Number of objective gradient evaluations             = 167
Number of equality constraint evaluations            = 167
Number of inequality constraint evaluations          = 0
Number of equality constraint Jacobian evaluations   = 167
Number of inequality constraint Jacobian evaluations = 0
Number of Lagrangian Hessian evaluations             = 166
Total CPU secs in IPOPT (w/o function evaluations)   =    299.897
Total CPU secs in NLP function evaluations           =      0.723

EXIT: Maximum CPU time exceeded.
Note: The following floating-point exceptions are signalling: IEEE_UNDERFLOW_FLAG IEEE_DENORMAL

************************ CUTEst statistics ************************


 Package used            :  IPOPT
 Problem                 :  NCVXQP1   
 # variables             =           10000
 # constraints           =            5000
 # objective functions   =        0.3350000E+03
 # objective gradients   =        0.1680000E+03
 # objective Hessians    =        0.1670000E+03
 # Hessian-vector prdct  =        0.0000000E+00
 # constraints functions =        0.3360000E+03
 # constraints gradients =        0.1690000E+03
 # constraints Hessians  =        0.1670000E+03
 Exit code               =              -4
 Final f                 =   0.0000000E+00
 Set up time             =            0.22 seconds
 Solve time              =          765.34 seconds


******************************************************************

System Time =     191.4759979248 s.
